========================================================== 
File name: C:\DEGR\assets\definitions\MSRCPSP_Gen\100_40_64_10_D.def
Creation date: Wed May 03 10:39:46 CEST 2023
Website: http://imopse.ii.pwr.edu.pl/ 
Reference: 
Myszkowski P. B., Skowronski M. E., Olech L., Oslizlo K., 
Hybrid Ant Colony Optimization in solving Multi-Skill Resource-Constrained Project Scheduling Problem, 
Soft Computing, DOI: DOI 10.1007/s00500-014-1455-x 
========================================================== 
General characteristics: 
Tasks: 100
Resources: 40
Precedence relations: 62
Number of skill types: 10
========================================================== 
ResourceID 	 Salary 	 Skills 
1	 	 	67.6	 	 Q2: 2 	  Q5: 1 	  Q6: 3 	  Q7: 2 	  Q4: 1 	  Q1: 0 	  Q9: 3 	  Q3: 3 	 
2	 	 	15.3	 	 Q3: 2 	  Q8: 2 	  Q2: 2 	  Q1: 3 	 
3	 	 	44.0	 	 Q8: 3 	  Q2: 3 	  Q0: 2 	  Q3: 0 	  Q6: 2 	  Q4: 3 	  Q1: 2 	  Q7: 2 	 
4	 	 	36.0	 	 Q1: 2 	  Q5: 1 	  Q9: 3 	  Q3: 0 	 
5	 	 	44.3	 	 Q9: 3 	  Q5: 1 	  Q0: 1 	  Q8: 2 	  Q3: 0 	  Q6: 3 	  Q1: 3 	 
6	 	 	94.4	 	 Q0: 0 	  Q8: 3 	  Q1: 3 	 
7	 	 	90.4	 	 Q0: 2 	  Q9: 3 	  Q2: 0 	  Q1: 3 	  Q5: 3 	  Q8: 0 	  Q6: 3 	  Q4: 1 	  Q7: 0 	 
8	 	 	49.3	 	 Q0: 2 	 
9	 	 	52.0	 	 Q0: 2 	  Q6: 2 	  Q1: 1 	  Q3: 2 	  Q4: 2 	  Q2: 2 	  Q9: 2 	  Q5: 3 	 
10	 	 	81.6	 	 Q8: 3 	  Q0: 2 	  Q1: 2 	  Q5: 1 	  Q9: 2 	  Q7: 1 	 
11	 	 	52.4	 	 Q1: 2 	  Q9: 2 	  Q7: 0 	 
12	 	 	92.4	 	 Q5: 0 	  Q6: 3 	  Q9: 1 	 
13	 	 	88.4	 	 Q1: 2 	  Q7: 2 	 
14	 	 	39.7	 	 Q9: 2 	  Q2: 2 	  Q0: 3 	  Q7: 2 	  Q8: 1 	  Q5: 1 	 
15	 	 	36.8	 	 Q2: 0 	  Q4: 0 	  Q6: 3 	  Q9: 2 	 
16	 	 	75.6	 	 Q2: 1 	  Q1: 0 	  Q5: 1 	  Q8: 0 	  Q9: 2 	 
17	 	 	24.6	 	 Q0: 3 	  Q3: 1 	  Q7: 2 	  Q4: 2 	 
18	 	 	67.7	 	 Q4: 0 	  Q7: 1 	  Q6: 2 	  Q9: 0 	  Q5: 3 	  Q3: 0 	  Q1: 1 	 
19	 	 	90.3	 	 Q8: 0 	  Q3: 2 	  Q6: 1 	  Q1: 3 	 
20	 	 	78.1	 	 Q5: 0 	  Q0: 3 	  Q7: 2 	  Q6: 0 	  Q9: 3 	  Q4: 0 	  Q8: 0 	 
21	 	 	63.2	 	 Q1: 0 	  Q9: 0 	  Q8: 3 	  Q4: 2 	  Q0: 0 	  Q7: 3 	  Q6: 3 	  Q5: 0 	 
22	 	 	21.9	 	 Q6: 3 	  Q8: 3 	 
23	 	 	57.0	 	 Q0: 1 	  Q2: 0 	 
24	 	 	52.2	 	 Q2: 1 	  Q0: 2 	  Q9: 3 	  Q7: 3 	 
25	 	 	25.8	 	 Q7: 3 	  Q1: 0 	  Q8: 3 	  Q6: 1 	  Q4: 1 	  Q3: 3 	 
26	 	 	60.6	 	 Q1: 0 	  Q3: 3 	  Q5: 2 	  Q8: 3 	  Q2: 0 	  Q6: 1 	 
27	 	 	21.1	 	 Q5: 3 	  Q4: 2 	  Q2: 1 	  Q6: 0 	  Q9: 3 	  Q1: 2 	 
28	 	 	72.4	 	 Q4: 2 	  Q3: 2 	  Q5: 0 	  Q9: 0 	  Q7: 0 	  Q0: 1 	 
29	 	 	15.5	 	 Q2: 1 	  Q0: 2 	  Q6: 3 	  Q1: 0 	 
30	 	 	97.9	 	 Q3: 3 	  Q1: 3 	 
31	 	 	69.8	 	 Q4: 3 	  Q9: 0 	  Q6: 2 	  Q2: 0 	 
32	 	 	43.8	 	 Q3: 0 	  Q0: 1 	 
33	 	 	32.8	 	 Q2: 0 	  Q6: 0 	 
34	 	 	11.8	 	 Q2: 3 	  Q8: 2 	  Q1: 3 	  Q6: 3 	  Q5: 2 	  Q4: 0 	 
35	 	 	85.7	 	 Q8: 2 	  Q0: 3 	  Q4: 1 	  Q9: 0 	  Q5: 1 	 
36	 	 	38.3	 	 Q1: 0 	  Q7: 2 	  Q5: 3 	  Q2: 3 	  Q9: 2 	  Q3: 0 	  Q0: 3 	  Q8: 1 	 
37	 	 	18.9	 	 Q8: 3 	  Q5: 1 	 
38	 	 	94.9	 	 Q5: 0 	  Q2: 3 	  Q4: 2 	  Q6: 0 	  Q9: 0 	 
39	 	 	38.7	 	 Q6: 0 	  Q8: 2 	  Q7: 0 	  Q0: 0 	  Q2: 2 	  Q1: 0 	  Q5: 2 	  Q9: 3 	  Q3: 2 	 
40	 	 	55.5	 	 Q2: 0 	  Q9: 2 	  Q3: 1 	  Q4: 2 	  Q5: 2 	  Q6: 3 	 
========================================================== 
TaskID 	 Duration 	 Skill 	 Predecessor IDs 
1	28	Q2:	0
2	31	Q8:	2
3	25	Q8:	2
4	16	Q9:	0
5	35	Q0:	1
6	23	Q3:	0
7	28	Q3:	3
8	31	Q6:	2
9	23	Q9:	2
10	21	Q3:	1
11	34	Q0:	0
12	23	Q8:	3	10
13	9	Q3:	2
14	13	Q6:	0	6
15	19	Q0:	1
16	25	Q0:	3
17	20	Q6:	0
18	11	Q1:	3
19	31	Q7:	3
20	36	Q8:	3	6
21	32	Q4:	0
22	38	Q8:	3
23	17	Q9:	0
24	19	Q7:	1
25	13	Q7:	0
26	28	Q9:	0
27	35	Q1:	0
28	22	Q4:	2	15
29	32	Q5:	0
30	39	Q7:	3	12
31	16	Q6:	3
32	10	Q3:	3
33	35	Q4:	2
34	20	Q2:	1
35	37	Q3:	3
36	18	Q7:	2
37	19	Q6:	0
38	31	Q4:	1	10	31
39	10	Q2:	2
40	16	Q6:	3	11	16
41	31	Q3:	2
42	30	Q2:	2	33
43	10	Q2:	2	1	34
44	21	Q4:	0
45	9	Q2:	0
46	21	Q2:	1	9
47	25	Q1:	1	5
48	15	Q1:	0	39
49	20	Q1:	2	27
50	36	Q2:	0	45
51	33	Q4:	1
52	20	Q2:	3	44	12
53	17	Q7:	0
54	15	Q1:	0
55	24	Q4:	0
56	23	Q3:	2
57	10	Q6:	0
58	21	Q7:	0	28
59	16	Q8:	2
60	30	Q9:	1
61	35	Q3:	3	47
62	13	Q5:	2	38	19
63	10	Q9:	0	14
64	31	Q1:	0
65	36	Q4:	2
66	20	Q7:	0	23
67	32	Q6:	1	49
68	11	Q7:	1
69	32	Q9:	0
70	33	Q2:	2	51	31	62	1
71	30	Q0:	0
72	13	Q7:	1	41
73	10	Q5:	3	24
74	11	Q5:	2
75	28	Q5:	0	20	5
76	21	Q4:	2
77	23	Q3:	3
78	40	Q2:	1
79	32	Q6:	1	15
80	21	Q2:	3
81	25	Q1:	3	47	27	75
82	14	Q1:	0
83	39	Q2:	3	73
84	34	Q4:	1
85	11	Q9:	2
86	35	Q2:	3	53
87	34	Q5:	3	59	75
88	27	Q6:	0	22
89	26	Q5:	0
90	36	Q8:	3	68	23
91	37	Q2:	1
92	26	Q9:	2	18	86
93	11	Q6:	1	61	14
94	33	Q0:	3
95	32	Q1:	3	24	59
96	28	Q1:	3
97	11	Q9:	2	92	31
98	24	Q5:	3	68	97	25	95
99	10	Q0:	1	3	74	7	77
100	22	Q0:	3	93
========================================================== 